DIMACS_lns/graph-1000-445.col
p edge 1000 1789
e 1 238
e 1 554
e 1 279
e 2 93
e 2 641
e 2 70
e 2 535
e 5 27
e 5 361
e 5 139
e 6 786
e 6 663
e 6 152
e 6 471
e 7 894
e 7 48
e 7 441
e 8 498
e 8 588
e 8 526
e 8 236
e 9 329
e 9 740
e 9 758
e 9 732
e 9 269
e 10 512
e 10 69
e 10 45
e 10 569
e 10 486
e 10 810
e 11 947
e 11 884
e 11 539
e 11 436
e 11 688
e 11 866
e 12 41
e 12 651
e 12 32
e 12 152
e 12 863
e 13 578
e 13 796
e 13 688
e 13 393
e 13 166
e 13 858
e 14 169
e 14 891
e 14 963
e 14 899
e 14 290
e 14 217
e 15 967
e 15 848
e 15 844
e 15 588
e 15 460
e 16 280
e 16 940
e 16 436
e 16 538
e 16 317
e 19 270
e 19 732
e 19 600
e 20 376
e 20 849
e 20 417
e 20 902
e 20 328
e 21 686
e 21 188
e 21 148
e 21 198
e 21 437
e 21 576
e 23 954
e 23 546
e 23 567
e 23 330
e 23 866
e 23 882
e 24 508
e 24 858
e 24 153
e 24 287
e 24 988
e 24 809
e 25 851
e 25 735
e 25 557
e 25 258
e 26 560
e 26 538
e 26 171
e 27 999
e 27 947
e 27 286
e 27 692
e 27 648
e 27 218
e 27 706
e 27 261
e 28 852
e 28 132
e 28 595
e 28 291
e 28 629
e 29 600
e 29 374
e 29 570
e 29 997
e 29 859
e 30 120
e 30 770
e 30 38
e 31 200
e 31 691
e 31 57
e 31 333
e 32 83
e 32 335
e 32 899
e 33 913
e 33 512
e 33 833
e 33 870
e 34 738
e 34 756
e 34 54
e 34 146
e 36 746
e 36 671
e 36 629
e 36 877
e 36 899
e 38 669
e 38 657
e 38 439
e 38 970
e 38 363
e 38 656
e 38 625
e 39 642
e 39 107
e 39 105
e 39 648
e 39 513
e 40 132
e 40 393
e 40 362
e 41 491
e 41 311
e 41 74
e 41 871
e 41 834
e 41 565
e 42 432
e 42 731
e 42 697
e 42 517
e 42 298
e 43 762
e 43 790
e 43 792
e 43 671
e 43 728
e 43 314
e 44 132
e 44 436
e 44 650
e 45 634
e 45 973
e 45 256
e 45 401
e 45 550
e 45 153
e 46 751
e 46 72
e 46 903
e 47 623
e 47 541
e 47 461
e 47 223
e 47 422
e 47 880
e 48 264
e 48 669
e 48 553
e 48 624
e 49 197
e 49 469
e 49 499
e 49 918
e 50 387
e 50 871
e 50 522
e 50 706
e 50 197
e 50 352
e 52 636
e 52 449
e 52 523
e 52 894
e 52 326
e 52 408
e 52 588
e 54 230
e 54 108
e 54 592
e 55 308
e 55 957
e 55 552
e 55 981
e 55 823
e 56 533
e 56 269
e 56 745
e 57 125
e 57 983
e 57 626
e 57 266
e 60 563
e 60 186
e 60 834
e 60 294
e 60 358
e 60 522
e 61 938
e 61 202
e 61 522
e 62 720
e 62 122
e 62 509
e 63 808
e 63 709
e 63 148
e 63 614
e 64 811
e 64 907
e 64 827
e 65 610
e 65 745
e 65 927
e 65 842
e 65 356
e 65 961
e 65 459
e 65 591
e 65 504
e 66 615
e 66 495
e 66 375
e 66 429
e 68 158
e 68 914
e 68 964
e 69 435
e 69 880
e 69 651
e 70 528
e 70 506
e 70 105
e 70 549
e 70 278
e 70 110
e 70 547
e 72 582
e 72 747
e 72 579
e 72 614
e 72 568
e 72 161
e 72 619
e 74 165
e 74 679
e 74 133
e 75 539
e 75 389
e 75 798
e 75 238
e 75 419
e 77 270
e 77 359
e 77 807
e 78 816
e 78 625
e 78 123
e 80 543
e 80 904
e 80 106
e 80 366
e 80 841
e 80 816
e 81 493
e 81 264
e 81 441
e 81 961
e 82 996
e 82 316
e 82 163
e 82 748
e 83 457
e 83 938
e 83 608
e 84 792
e 84 951
e 84 202
e 84 927
e 87 848
e 87 833
e 87 786
e 88 304
e 88 653
e 88 493
e 88 363
e 89 150
e 89 550
e 89 563
e 89 629
e 90 386
e 90 311
e 90 321
e 90 707
e 92 833
e 92 139
e 92 599
e 92 810
e 93 479
e 93 114
e 93 367
e 94 260
e 94 970
e 94 892
e 94 670
e 94 403
e 95 656
e 95 765
e 95 690
e 96 469
e 96 953
e 96 698
e 96 294
e 96 527
e 97 238
e 97 892
e 97 344
e 97 996
e 97 606
e 98 934
e 98 198
e 98 475
e 98 536
e 99 742
e 99 999
e 99 305
e 99 913
e 99 264
e 99 295
e 102 823
e 102 325
e 102 772
e 104 619
e 104 158
e 104 536
e 104 374
e 105 915
e 105 969
e 105 495
e 105 321
e 105 239
e 106 521
e 106 460
e 106 362
e 106 712
e 107 276
e 107 844
e 107 641
e 107 608
e 108 671
e 108 161
e 108 893
e 108 537
e 108 290
e 108 127
e 108 185
e 108 805
e 109 926
e 109 211
e 109 449
e 109 956
e 110 835
e 110 841
e 110 622
e 110 864
e 110 226
e 110 470
e 111 881
e 111 319
e 111 757
e 114 356
e 114 955
e 114 673
e 114 836
e 114 814
e 119 414
e 119 765
e 119 591
e 119 542
e 119 910
e 120 290
e 120 289
e 120 480
e 120 735
e 120 329
e 121 150
e 121 328
e 121 485
e 121 146
e 121 672
e 121 547
e 122 225
e 122 564
e 122 879
e 122 719
e 123 770
e 123 310
e 123 182
e 125 357
e 125 897
e 126 731
e 126 952
e 126 517
e 126 648
e 126 869
e 127 275
e 127 237
e 127 227
e 127 711
e 127 460
e 127 184
e 127 706
e 129 335
e 129 718
e 129 405
e 129 470
e 129 783
e 129 231
e 132 288
e 132 144
e 133 161
e 133 1000
e 133 729
e 134 221
e 134 740
e 134 772
e 134 989
e 135 192
e 135 161
e 135 649
e 135 660
e 135 701
e 135 506
e 138 490
e 138 579
e 138 591
e 138 558
e 138 994
e 139 693
e 139 158
e 139 242
e 139 858
e 139 333
e 140 807
e 140 368
e 140 849
e 140 511
e 141 756
e 141 892
e 141 474
e 141 254
e 141 840
e 144 543
e 144 149
e 145 911
e 145 684
e 145 914
e 146 243
e 146 637
e 146 994
e 147 726
e 147 311
e 147 633
e 147 684
e 147 870
e 148 982
e 148 861
e 148 617
e 148 920
e 149 685
e 149 498
e 149 797
e 149 502
e 149 875
e 149 881
e 149 655
e 150 444
e 150 866
e 150 871
e 150 567
e 150 983
e 150 904
e 152 310
e 152 795
e 152 238
e 152 996
e 152 454
e 153 951
e 153 436
e 153 650
e 154 166
e 154 607
e 154 296
e 154 307
e 155 962
e 155 515
e 155 262
e 155 838
e 155 187
e 155 199
e 155 171
e 155 701
e 156 172
e 156 991
e 156 280
e 157 718
e 157 410
e 157 863
e 157 806
e 157 487
e 158 446
e 158 455
e 160 602
e 160 652
e 160 295
e 160 386
e 161 237
e 161 397
e 161 858
e 161 523
e 163 617
e 163 687
e 163 563
e 163 711
e 165 364
e 165 347
e 165 651
e 165 997
e 165 546
e 166 835
e 166 792
e 166 891
e 166 341
e 168 274
e 168 417
e 168 907
e 169 470
e 169 667
e 169 860
e 170 689
e 170 347
e 170 298
e 171 301
e 171 657
e 171 988
e 171 241
e 172 957
e 172 687
e 172 402
e 172 757
e 174 697
e 174 362
e 174 575
e 174 780
e 175 564
e 175 786
e 175 279
e 175 852
e 175 571
e 176 742
e 176 528
e 176 879
e 176 185
e 176 899
e 176 960
e 177 531
e 177 544
e 177 447
e 177 880
e 180 946
e 180 905
e 180 585
e 180 600
e 180 183
e 180 547
e 181 644
e 181 305
e 181 276
e 181 471
e 181 996
e 181 870
e 182 546
e 182 614
e 182 998
e 182 405
e 182 299
e 182 297
e 183 416
e 183 394
e 183 648
e 183 718
e 183 866
e 184 721
e 184 641
e 184 366
e 184 557
e 184 405
e 185 731
e 185 366
e 186 830
e 186 345
e 187 912
e 187 811
e 188 858
e 188 552
e 188 703
e 192 573
e 192 930
e 192 426
e 192 586
e 197 223
e 197 871
e 197 972
e 197 692
e 198 653
e 198 784
e 198 906
e 198 934
e 198 321
e 198 539
e 199 536
e 199 268
e 199 974
e 199 903
e 199 270
e 199 642
e 200 687
e 200 463
e 200 774
e 202 752
e 202 869
e 202 970
e 202 280
e 202 761
e 204 234
e 204 810
e 204 485
e 204 783
e 204 744
e 205 841
e 205 772
e 205 883
e 206 401
e 206 823
e 206 374
e 211 339
e 211 619
e 211 467
e 213 274
e 213 835
e 213 363
e 215 555
e 215 269
e 215 783
e 217 987
e 217 236
e 217 745
e 217 321
e 217 780
e 218 554
e 218 238
e 218 331
e 221 422
e 221 565
e 221 683
e 223 411
e 223 469
e 223 352
e 225 656
e 225 778
e 225 290
e 225 624
e 225 404
e 225 698
e 226 913
e 226 914
e 227 445
e 227 395
e 227 550
e 229 733
e 229 554
e 229 906
e 230 877
e 230 674
e 230 437
e 230 949
e 230 940
e 230 965
e 231 685
e 231 528
e 231 821
e 231 279
e 231 408
e 234 560
e 234 569
e 234 780
e 234 841
e 234 577
e 235 977
e 235 359
e 235 493
e 236 929
e 236 249
e 236 724
e 236 840
e 236 995
e 237 594
e 237 615
e 237 265
e 237 252
e 237 954
e 237 289
e 238 718
e 238 665
e 238 286
e 239 392
e 239 262
e 239 307
e 239 476
e 239 519
e 241 565
e 241 487
e 242 369
e 242 973
e 242 684
e 242 392
e 242 670
e 242 441
e 242 427
e 243 644
e 243 512
e 243 401
e 244 589
e 244 380
e 244 795
e 244 622
e 245 526
e 245 320
e 245 479
e 248 845
e 248 989
e 248 827
e 248 762
e 249 513
e 249 344
e 249 866
e 250 673
e 250 476
e 250 946
e 250 396
e 250 793
e 251 934
e 251 426
e 251 256
e 252 414
e 252 883
e 254 313
e 254 991
e 254 835
e 254 982
e 255 880
e 255 707
e 255 527
e 256 471
e 256 340
e 258 995
e 258 471
e 259 814
e 259 308
e 259 524
e 260 789
e 260 537
e 260 561
e 260 400
e 261 576
e 261 628
e 262 972
e 264 794
e 264 910
e 264 689
e 264 496
e 264 915
e 264 938
e 264 820
e 264 895
e 264 809
e 264 696
e 265 335
e 265 460
e 265 927
e 265 866
e 265 406
e 266 748
e 266 835
e 266 784
e 266 285
e 266 830
e 267 899
e 267 552
e 267 912
e 267 988
e 267 731
e 268 625
e 268 861
e 268 310
e 268 410
e 269 899
e 269 524
e 269 818
e 270 554
e 270 346
e 273 376
e 273 331
e 273 514
e 273 895
e 273 554
e 274 883
e 274 311
e 274 658
e 274 835
e 274 779
e 275 314
e 275 808
e 276 389
e 278 719
e 278 762
e 278 843
e 280 871
e 280 880
e 280 685
e 284 808
e 284 715
e 284 962
e 285 498
e 285 375
e 285 347
e 285 565
e 285 774
e 286 456
e 286 867
e 287 702
e 287 598
e 287 315
e 288 461
e 288 794
e 288 992
e 289 943
e 289 823
e 289 641
e 289 611
e 289 673
e 289 508
e 289 551
e 290 444
e 290 582
e 290 882
e 290 691
e 290 688
e 291 871
e 291 911
e 293 954
e 293 329
e 293 330
e 293 454
e 293 368
e 293 348
e 293 775
e 294 333
e 294 779
e 295 336
e 295 794
e 296 380
e 296 778
e 296 867
e 296 466
e 296 553
e 297 625
e 297 846
e 297 475
e 297 647
e 297 840
e 298 325
e 298 336
e 298 981
e 298 317
e 298 374
e 299 693
e 299 434
e 299 392
e 299 585
e 299 942
e 299 336
e 300 657
e 300 917
e 300 323
e 300 742
e 301 907
e 301 530
e 301 961
e 301 476
e 303 610
e 303 990
e 303 612
e 304 896
e 304 408
e 304 431
e 305 335
e 305 1000
e 305 311
e 307 446
e 307 615
e 308 415
e 308 817
e 308 331
e 308 363
e 310 527
e 310 732
e 311 542
e 311 692
e 311 313
e 312 591
e 312 496
e 312 958
e 313 524
e 313 432
e 314 657
e 314 916
e 314 316
e 314 578
e 314 549
e 314 901
e 314 408
e 314 361
e 315 762
e 315 536
e 315 544
e 315 517
e 315 411
e 316 335
e 316 467
e 316 684
e 317 464
e 317 537
e 317 901
e 318 628
e 318 888
e 318 706
e 319 802
e 319 434
e 319 333
e 319 632
e 320 485
e 320 691
e 322 361
e 322 481
e 322 627
e 322 765
e 323 560
e 323 469
e 323 358
e 324 486
e 324 376
e 324 651
e 324 604
e 325 642
e 325 473
e 325 805
e 326 906
e 326 836
e 326 512
e 327 786
e 327 514
e 327 761
e 327 329
e 328 674
e 328 404
e 329 817
e 329 333
e 330 387
e 330 805
e 330 574
e 331 994
e 331 701
e 331 767
e 331 952
e 331 768
e 333 934
e 333 704
e 333 850
e 333 649
e 333 670
e 335 573
e 335 916
e 335 361
e 336 454
e 336 341
e 339 753
e 339 693
e 340 745
e 340 627
e 340 524
e 340 489
e 340 961
e 340 837
e 340 501
e 340 834
e 341 676
e 343 405
e 343 991
e 343 402
e 344 876
e 345 624
e 345 918
e 345 391
e 346 724
e 346 673
e 346 660
e 347 768
e 347 944
e 347 628
e 347 706
e 348 457
e 348 447
e 348 835
e 348 892
e 352 552
e 352 702
e 354 469
e 354 761
e 354 612
e 355 484
e 355 582
e 355 982
e 356 617
e 356 863
e 356 550
e 356 869
e 357 419
e 357 447
e 357 599
e 357 531
e 358 375
e 358 657
e 358 918
e 359 439
e 361 773
e 361 391
e 362 523
e 362 628
e 362 871
e 363 864
e 364 537
e 364 985
e 364 717
e 366 565
e 367 901
e 367 905
e 367 552
e 367 900
e 368 821
e 368 519
e 368 874
e 368 486
e 369 903
e 369 506
e 370 879
e 370 597
e 370 504
e 371 575
e 371 947
e 371 665
e 371 579
e 372 511
e 372 578
e 372 960
e 372 401
e 374 376
e 374 815
e 374 858
e 375 879
e 375 876
e 375 400
e 375 541
e 376 815
e 376 606
e 376 943
e 377 724
e 377 408
e 377 794
e 377 504
e 378 847
e 378 969
e 378 863
e 379 481
e 379 834
e 379 611
e 379 633
e 379 861
e 380 667
e 385 466
e 385 667
e 385 632
e 386 394
e 386 614
e 386 561
e 386 717
e 387 419
e 387 608
e 387 772
e 387 536
e 387 793
e 387 705
e 387 655
e 389 718
e 389 972
e 391 721
e 391 473
e 391 772
e 391 986
e 391 526
e 393 574
e 393 728
e 393 943
e 394 395
e 395 455
e 395 555
e 396 884
e 396 815
e 396 531
e 396 669
e 396 520
e 396 863
e 397 947
e 397 429
e 397 830
e 397 1000
e 397 555
e 400 964
e 400 719
e 401 795
e 402 672
e 402 835
e 402 780
e 403 709
e 403 780
e 403 827
e 404 731
e 404 735
e 404 609
e 404 894
e 404 594
e 404 971
e 405 439
e 405 461
e 405 563
e 406 801
e 406 835
e 407 862
e 407 998
e 407 459
e 407 567
e 407 806
e 408 629
e 408 757
e 408 883
e 408 594
e 408 568
e 408 520
e 410 449
e 410 692
e 411 588
e 411 538
e 411 963
e 411 952
e 411 586
e 414 927
e 414 874
e 414 823
e 414 835
e 415 817
e 415 544
e 415 649
e 415 747
e 415 983
e 416 480
e 416 464
e 416 519
e 416 661
e 417 619
e 417 589
e 419 860
e 419 689
e 419 805
e 422 988
e 422 817
e 422 821
e 426 507
e 427 956
e 427 639
e 429 602
e 429 463
e 431 944
e 431 748
e 432 542
e 432 588
e 434 841
e 435 576
e 435 949
e 436 519
e 436 914
e 436 761
e 437 696
e 437 492
e 437 625
e 437 639
e 439 449
e 439 738
e 439 465
e 440 690
e 440 644
e 440 668
e 441 940
e 441 625
e 441 456
e 441 740
e 441 536
e 444 687
e 444 791
e 444 774
e 445 895
e 445 905
e 446 615
e 447 838
e 447 498
e 449 752
e 454 830
e 454 972
e 455 504
e 455 784
e 455 846
e 456 773
e 456 892
e 456 903
e 457 840
e 457 986
e 459 550
e 460 577
e 460 744
e 460 652
e 461 619
e 461 617
e 461 519
e 463 903
e 463 789
e 464 960
e 465 718
e 465 560
e 465 643
e 466 980
e 467 956
e 469 853
e 469 553
e 470 779
e 470 559
e 470 926
e 470 999
e 471 632
e 473 704
e 473 796
e 473 903
e 473 598
e 474 589
e 474 806
e 475 856
e 475 688
e 476 602
e 476 949
e 476 858
e 477 679
e 477 899
e 477 506
e 479 947
e 480 785
e 480 991
e 480 502
e 481 786
e 481 577
e 484 980
e 484 729
e 484 814
e 485 952
e 485 851
e 485 864
e 485 611
e 486 837
e 487 969
e 487 756
e 487 796
e 487 783
e 487 515
e 487 983
e 489 726
e 489 591
e 489 612
e 490 947
e 490 624
e 490 652
e 491 704
e 491 801
e 491 777
e 492 970
e 492 802
e 493 530
e 493 683
e 493 795
e 495 875
e 495 568
e 496 990
e 496 929
e 497 622
e 497 608
e 497 793
e 497 791
e 498 895
e 499 773
e 499 661
e 499 974
e 499 551
e 500 544
e 500 501
e 500 767
e 501 689
e 501 846
e 501 570
e 501 704
e 502 586
e 502 888
e 504 648
e 507 671
e 507 995
e 508 533
e 508 539
e 508 774
e 509 912
e 509 985
e 511 798
e 511 519
e 513 971
e 514 861
e 515 729
e 515 547
e 515 693
e 515 954
e 517 997
e 517 917
e 520 761
e 520 864
e 521 588
e 521 804
e 523 963
e 523 899
e 524 531
e 524 786
e 525 600
e 525 953
e 525 944
e 525 757
e 525 934
e 525 775
e 526 864
e 526 634
e 527 626
e 527 751
e 527 660
e 528 791
e 528 608
e 530 982
e 530 673
e 530 715
e 531 926
e 533 900
e 533 717
e 534 820
e 534 969
e 534 846
e 534 801
e 535 657
e 535 732
e 536 810
e 538 658
e 538 871
e 539 758
e 541 593
e 542 863
e 543 977
e 543 595
e 543 794
e 543 857
e 544 972
e 544 841
e 546 820
e 546 996
e 547 709
e 547 555
e 549 825
e 550 874
e 550 818
e 551 815
e 552 850
e 553 557
e 553 874
e 553 841
e 554 856
e 554 597
e 554 703
e 554 642
e 555 648
e 555 571
e 557 596
e 557 960
e 557 558
e 557 875
e 558 833
e 558 795
e 558 595
e 558 608
e 559 774
e 559 707
e 559 600
e 559 807
e 560 832
e 560 786
e 560 803
e 561 955
e 561 985
e 563 633
e 564 643
e 567 851
e 567 918
e 567 746
e 568 742
e 568 702
e 569 983
e 569 789
e 570 852
e 571 765
e 573 582
e 573 897
e 574 655
e 574 870
e 575 989
e 575 706
e 575 983
e 575 850
e 576 837
e 576 705
e 577 969
e 577 686
e 577 661
e 578 987
e 579 682
e 581 637
e 581 943
e 581 738
e 581 641
e 581 721
e 582 689
e 582 779
e 585 746
e 588 967
e 589 593
e 589 790
e 591 703
e 591 636
e 591 655
e 592 957
e 592 614
e 593 996
e 593 806
e 594 920
e 595 665
e 596 970
e 596 893
e 596 614
e 597 723
e 598 777
e 598 692
e 598 907
e 599 844
e 599 683
e 600 858
e 600 692
e 600 691
e 602 849
e 602 797
e 602 619
e 604 874
e 604 670
e 606 738
e 606 697
e 607 687
e 607 847
e 608 615
e 609 803
e 609 795
e 609 627
e 610 657
e 610 841
e 610 773
e 611 897
e 611 854
e 611 913
e 611 719
e 611 845
e 611 657
e 612 673
e 612 852
e 612 651
e 614 893
e 614 837
e 617 735
e 617 687
e 622 836
e 623 904
e 623 869
e 623 920
e 623 854
e 625 636
e 625 707
e 626 990
e 627 696
e 627 818
e 627 649
e 629 900
e 632 690
e 632 918
e 632 942
e 632 910
e 633 860
e 634 769
e 634 811
e 634 882
e 636 962
e 637 848
e 639 712
e 641 814
e 642 832
e 643 768
e 643 953
e 644 850
e 646 902
e 646 996
e 646 698
e 646 691
e 647 692
e 647 877
e 648 854
e 648 719
e 649 942
e 650 963
e 653 665
e 656 848
e 657 742
e 657 969
e 657 814
e 657 994
e 658 853
e 660 705
e 663 683
e 663 915
e 665 781
e 665 780
e 667 857
e 668 807
e 668 859
e 668 724
e 670 752
e 670 983
e 671 772
e 672 998
e 672 720
e 672 971
e 674 870
e 674 982
e 676 867
e 676 744
e 679 902
e 682 896
e 682 844
e 682 958
e 683 830
e 683 915
e 683 864
e 684 795
e 685 779
e 685 715
e 686 697
e 686 982
e 687 954
e 687 833
e 687 938
e 691 807
e 693 836
e 693 707
e 697 728
e 697 845
e 698 724
e 698 805
e 698 862
e 698 835
e 703 711
e 704 767
e 705 767
e 706 861
e 706 930
e 707 915
e 707 954
e 708 795
e 708 892
e 708 779
e 708 711
e 709 883
e 709 715
e 711 804
e 712 910
e 715 820
e 717 773
e 717 934
e 717 857
e 717 955
e 717 763
e 719 784
e 720 989
e 721 871
e 721 846
e 723 781
e 723 867
e 723 853
e 723 837
e 723 798
e 726 994
e 728 901
e 728 858
e 728 859
e 728 869
e 732 821
e 733 797
e 733 820
e 733 837
e 735 912
e 740 977
e 740 753
e 744 874
e 744 792
e 745 927
e 747 920
e 751 930
e 753 791
e 756 762
e 756 777
e 758 1000
e 758 778
e 761 938
e 762 963
e 762 805
e 763 992
e 763 864
e 763 964
e 763 816
e 765 769
e 765 879
e 767 891
e 768 946
e 768 772
e 768 965
e 769 904
e 770 823
e 772 982
e 773 804
e 775 882
e 775 965
e 775 843
e 777 832
e 779 918
e 779 877
e 779 837
e 780 820
e 780 953
e 781 881
e 783 970
e 783 981
e 785 810
e 785 867
e 789 896
e 790 989
e 793 912
e 794 974
e 795 876
e 795 905
e 795 880
e 797 972
e 797 918
e 802 973
e 803 817
e 804 995
e 804 964
e 805 845
e 805 869
e 806 858
e 809 989
e 810 929
e 810 833
e 810 911
e 811 986
e 815 972
e 818 953
e 825 853
e 825 990
e 835 863
e 836 862
e 838 953
e 838 971
e 840 949
e 840 992
e 841 851
e 841 880
e 842 906
e 842 888
e 843 856
e 846 875
e 847 910
e 848 996
e 849 942
e 850 884
e 853 972
e 863 867
e 867 974
e 867 951
e 875 987
e 876 949
e 879 958
e 888 892
e 892 899
e 894 951
e 896 962
e 901 916
e 904 962
e 914 990
e 917 961
e 920 973
e 951 956
e 967 998
e 970 973
e 974 989
e 980 991
e 997 998
